c description: Random 3-CNF over 19 variables and 81 clauses
c generator: CNFgen (0.9.2)
c copyright: (C) 2012-2022 Massimo Lauria <massimo.lauria@uniroma1.it>
c url: https://massimolauria.net/cnfgen
c command line: cnfgen --output CNF_4.28/19_bit_81_612.cnf randkcnf 3 19 81
c
p cnf 19 81
-2 -6 -16 0
3 12 -14 0
-2 -4 14 0
-5 6 -9 0
2 -5 6 0
-2 -17 -18 0
-2 -15 -16 0
10 -13 -16 0
6 12 -18 0
7 9 -10 0
-3 -9 -12 0
4 8 9 0
-13 14 -15 0
7 -9 -12 0
5 14 -15 0
11 12 -15 0
-2 -13 18 0
-12 -15 -18 0
2 -13 18 0
3 -10 -19 0
3 -13 -19 0
1 -3 16 0
-4 5 11 0
2 7 -15 0
2 13 -17 0
2 -6 10 0
2 -7 9 0
-10 16 18 0
-3 16 -17 0
-6 13 14 0
-13 -14 -16 0
-1 -3 -8 0
-9 -12 -17 0
-2 -11 12 0
-9 15 17 0
-13 -15 18 0
2 6 -19 0
-2 4 18 0
1 -3 -4 0
-7 -18 19 0
-3 8 19 0
2 10 17 0
-2 -12 -16 0
-2 -6 -7 0
-4 17 -19 0
7 11 -19 0
4 7 14 0
3 -13 18 0
3 11 -12 0
3 5 15 0
6 10 -13 0
-3 5 12 0
1 -3 -19 0
-2 16 17 0
-6 7 13 0
5 -10 -13 0
1 -8 17 0
-2 -10 19 0
1 11 17 0
11 -17 19 0
-4 -5 -13 0
4 -16 17 0
6 8 -9 0
7 -9 19 0
-10 -15 -16 0
2 -6 12 0
-2 6 19 0
4 17 19 0
4 -14 16 0
2 -7 15 0
4 5 -6 0
-4 6 -19 0
-3 -13 15 0
-2 -3 5 0
-6 9 10 0
10 -16 19 0
4 5 11 0
-5 -11 13 0
1 10 11 0
-8 11 17 0
-6 -15 -17 0
